(declare-fun temp934_1 () (_ BitVec 64))
(declare-fun var525626 () (_ BitVec 64))
(declare-fun temp934_2 () (_ BitVec 64))
(declare-fun var787770 () (_ BitVec 64))
(declare-fun temp934_3 () (_ BitVec 64))
(declare-fun var1836346 () (_ BitVec 64))
(declare-fun temp934_4 () (_ BitVec 64))
(declare-fun var2098490 () (_ BitVec 64))
(assert (= temp934_1 #x0000000000000000))
(assert (= var525626 temp934_1))
(assert (= temp934_2 #x0000000000000000))
(assert (= var787770 temp934_2))
(assert (= temp934_3 #x0000000000000000))
(assert (= var1836346 temp934_3))
(assert (= temp934_4 #x0000000000000000))
(assert (= var2098490 temp934_4))
(model-add temp934_1 () (_ BitVec 64) #x0000000000000000)
(model-add var525626 () (_ BitVec 64) #x0000000000000000)
(model-add temp934_2 () (_ BitVec 64) #x0000000000000000)
(model-add var787770 () (_ BitVec 64) #x0000000000000000)
(model-add temp934_3 () (_ BitVec 64) #x0000000000000000)
(model-add var1836346 () (_ BitVec 64) #x0000000000000000)
(model-add temp934_4 () (_ BitVec 64) #x0000000000000000)
(model-add var2098490 () (_ BitVec 64) #x0000000000000000)





